min: c;

c = 4.12327021752765 * u4_t1_h1 + 3.25573167551602 * u4_t1_h2 + 3.51395806103774 * u4_t1_h3 + 3.03392469186098 * u4_t1_h4 + 3.03392469186098 * u4_t10_h4 + 3.19674820939541 * u4_t1_h5 + 3.19674820939541 * u4_t10_h5 + 3.97542679483455 * u4_t1_h6 + 3.97542679483455 * u4_t10_h6 + 4.35938653630312 * u4_t1_h7 + 4.35938653630312 * u4_t10_h7 + 5.20601321649838 * u4_t1_h8 + 5.20601321649838 * u4_t9_h8 + 5.20601321649838 * u4_t10_h8 + 5.28058372163128 * u4_t9_h9 + 5.28058372163128 * u4_t10_h9 + 4.96259716179997 * u4_t9_h10 + 4.96259716179997 * u4_t10_h10 + 3.82816011509472 * u4_t2_h11 + 3.82816011509472 * u4_t4_h11 + 3.82816011509472 * u4_t9_h11 + 3.82816011509472 * u4_t10_h11 + 6.5408599396854 * u4_t2_h12 + 6.5408599396854 * u4_t3_h12 + 6.5408599396854 * u4_t4_h12 + 6.5408599396854 * u4_t8_h12 + 6.5408599396854 * u4_t9_h12 + 6.5408599396854 * u4_t10_h12 + 4.47166205555246 * u4_t2_h13 + 4.47166205555246 * u4_t3_h13 + 4.47166205555246 * u4_t4_h13 + 4.47166205555246 * u4_t8_h13 + 4.47166205555246 * u4_t9_h13 + 5.63649931068174 * u4_t2_h14 + 5.63649931068174 * u4_t3_h14 + 5.63649931068174 * u4_t4_h14 + 5.63649931068174 * u4_t8_h14 + 5.63649931068174 * u4_t9_h14 + 6.29614045363895 * u4_t2_h15 + 6.29614045363895 * u4_t3_h15 + 6.29614045363895 * u4_t4_h15 + 6.29614045363895 * u4_t8_h15 + 6.29614045363895 * u4_t9_h15 + 5.94538528672497 * u4_t2_h16 + 5.94538528672497 * u4_t3_h16 + 5.94538528672497 * u4_t4_h16 + 5.94538528672497 * u4_t5_h16 + 5.94538528672497 * u4_t8_h16 + 5.94538528672497 * u4_t9_h16 + 6.70500136686307 * u4_t2_h17 + 6.70500136686307 * u4_t3_h17 + 6.70500136686307 * u4_t5_h17 + 6.70500136686307 * u4_t8_h17 + 6.70500136686307 * u4_t9_h17 + 6.45111785894243 * u4_t2_h18 + 6.45111785894243 * u4_t3_h18 + 6.45111785894243 * u4_t5_h18 + 6.45111785894243 * u4_t8_h18 + 6.45111785894243 * u4_t9_h18 + 5.24202638166664 * u4_t2_h19 + 5.24202638166664 * u4_t3_h19 + 5.24202638166664 * u4_t6_h19 + 5.24202638166664 * u4_t8_h19 + 5.24202638166664 * u4_t9_h19 + 5.37695093844066 * u4_t2_h20 + 5.37695093844066 * u4_t6_h20 + 5.37695093844066 * u4_t9_h20 + 5.64901231197403 * u4_t6_h21 + 5.86401299003475 * u4_t6_h22 + 5.86401299003475 * u4_t7_h22 + 5.24207910092557 * u4_t6_h23 + 5.24207910092557 * u4_t7_h23;
0 <= u4_t1_h1 <= 1;
0 <= u4_t1_h2 <= 1;
0 <= u4_t1_h3 <= 1;
0 <= u4_t1_h4 <= 1;
0 <= u4_t1_h5 <= 1;
0 <= u4_t1_h6 <= 1;
0 <= u4_t1_h7 <= 1;
0 <= u4_t1_h8 <= 1;
u4_t1_h1 + u4_t1_h2 + u4_t1_h3 + u4_t1_h4 + u4_t1_h5 + u4_t1_h6 + u4_t1_h7 + u4_t1_h8 = 1;
0 <= u4_t2_h11 <= 1;
0 <= u4_t2_h12 <= 1;
0 <= u4_t2_h13 <= 1;
0 <= u4_t2_h14 <= 1;
0 <= u4_t2_h15 <= 1;
0 <= u4_t2_h16 <= 1;
0 <= u4_t2_h17 <= 1;
0 <= u4_t2_h18 <= 1;
0 <= u4_t2_h19 <= 1;
0 <= u4_t2_h20 <= 1;
u4_t2_h11 + u4_t2_h12 + u4_t2_h13 + u4_t2_h14 + u4_t2_h15 + u4_t2_h16 + u4_t2_h17 + u4_t2_h18 + u4_t2_h19 + u4_t2_h20 = 2;
0 <= u4_t3_h12 <= 1;
0 <= u4_t3_h13 <= 1;
0 <= u4_t3_h14 <= 1;
0 <= u4_t3_h15 <= 1;
0 <= u4_t3_h16 <= 1;
0 <= u4_t3_h17 <= 1;
0 <= u4_t3_h18 <= 1;
0 <= u4_t3_h19 <= 1;
u4_t3_h12 + u4_t3_h13 + u4_t3_h14 + u4_t3_h15 + u4_t3_h16 + u4_t3_h17 + u4_t3_h18 + u4_t3_h19 = 3;
0 <= u4_t4_h11 <= 1;
0 <= u4_t4_h12 <= 1;
0 <= u4_t4_h13 <= 1;
0 <= u4_t4_h14 <= 1;
0 <= u4_t4_h15 <= 1;
0 <= u4_t4_h16 <= 1;
u4_t4_h11 + u4_t4_h12 + u4_t4_h13 + u4_t4_h14 + u4_t4_h15 + u4_t4_h16 = 3;
0 <= u4_t5_h16 <= 1;
0 <= u4_t5_h17 <= 1;
0 <= u4_t5_h18 <= 1;
u4_t5_h16 + u4_t5_h17 + u4_t5_h18 = 1;
0 <= u4_t6_h19 <= 1;
0 <= u4_t6_h20 <= 1;
0 <= u4_t6_h21 <= 1;
0 <= u4_t6_h22 <= 1;
0 <= u4_t6_h23 <= 1;
u4_t6_h19 + u4_t6_h20 + u4_t6_h21 + u4_t6_h22 + u4_t6_h23 = 3;
0 <= u4_t7_h22 <= 1;
0 <= u4_t7_h23 <= 1;
u4_t7_h22 + u4_t7_h23 = 1;
0 <= u4_t8_h12 <= 1;
0 <= u4_t8_h13 <= 1;
0 <= u4_t8_h14 <= 1;
0 <= u4_t8_h15 <= 1;
0 <= u4_t8_h16 <= 1;
0 <= u4_t8_h17 <= 1;
0 <= u4_t8_h18 <= 1;
0 <= u4_t8_h19 <= 1;
u4_t8_h12 + u4_t8_h13 + u4_t8_h14 + u4_t8_h15 + u4_t8_h16 + u4_t8_h17 + u4_t8_h18 + u4_t8_h19 = 2;
0 <= u4_t9_h8 <= 1;
0 <= u4_t9_h9 <= 1;
0 <= u4_t9_h10 <= 1;
0 <= u4_t9_h11 <= 1;
0 <= u4_t9_h12 <= 1;
0 <= u4_t9_h13 <= 1;
0 <= u4_t9_h14 <= 1;
0 <= u4_t9_h15 <= 1;
0 <= u4_t9_h16 <= 1;
0 <= u4_t9_h17 <= 1;
0 <= u4_t9_h18 <= 1;
0 <= u4_t9_h19 <= 1;
0 <= u4_t9_h20 <= 1;
u4_t9_h8 + u4_t9_h9 + u4_t9_h10 + u4_t9_h11 + u4_t9_h12 + u4_t9_h13 + u4_t9_h14 + u4_t9_h15 + u4_t9_h16 + u4_t9_h17 + u4_t9_h18 + u4_t9_h19 + u4_t9_h20 = 2;
0 <= u4_t10_h4 <= 1;
0 <= u4_t10_h5 <= 1;
0 <= u4_t10_h6 <= 1;
0 <= u4_t10_h7 <= 1;
0 <= u4_t10_h8 <= 1;
0 <= u4_t10_h9 <= 1;
0 <= u4_t10_h10 <= 1;
0 <= u4_t10_h11 <= 1;
0 <= u4_t10_h12 <= 1;
u4_t10_h4 + u4_t10_h5 + u4_t10_h6 + u4_t10_h7 + u4_t10_h8 + u4_t10_h9 + u4_t10_h10 + u4_t10_h11 + u4_t10_h12 = 2;
